p cnf 28 75
a 2 4 0
e 1 3 5 6 7 8 9 10 11 12 13 14 15 16 17 18 19 20 21 22 23 24 25 26 27 28 0
3 1 0
3 -2 0
-1 2 -3 0
3 4 -5 0
-3 -4 -5 0
3 -4 5 0
-3 4 5 0
7 -4 0
7 -6 0
4 6 -7 0
-8 -7 0
-8 -2 0
7 2 8 0
5 8 -9 0
-5 -8 -9 0
5 -8 9 0
-5 8 9 0
10 -1 0
10 -6 0
1 6 -10 0
-11 -1 0
-11 -10 0
1 10 11 0
10 -12 -13 0
-10 12 -13 0
10 12 13 0
-10 -12 13 0
-11 -13 -14 0
11 13 -14 0
-11 13 14 0
11 -13 14 0
16 -6 0
16 -4 0
6 4 -16 0
-17 -16 0
-17 1 0
16 -1 17 0
-18 -15 0
-18 17 0
15 -17 18 0
19 12 -20 0
-19 -12 -20 0
19 -12 20 0
-19 12 20 0
21 -18 0
21 -20 0
18 20 -21 0
22 14 0
22 21 0
-14 -21 -22 0
-17 7 -23 0
17 -7 -23 0
-17 -7 23 0
17 7 23 0
-25 -24 0
-25 -12 0
24 12 25 0
-23 -25 -26 0
23 25 -26 0
-23 25 26 0
23 -25 26 0
-27 -22 0
-27 -26 0
22 26 27 0
28 -9 0
28 27 0
9 -27 -28 0
8 21 -28 11 -15 0
-3 16 27 -10 2 0
-22 14 3 0
7 -6 -24 -18 -16 20 9 0
27 -10 -3 19 26 -8 14 -13 0
-14 -20 -22 -10 28 -6 3 0
-17 -22 -6 11 -5 0
28 0
